c 
c G(k,n,p) graph
c graph gen seed     : 3218
c number of vertices : 30
c max number of edges: 500
c number of classes  : 2
c edge density       : 0.800000
c edge probability   : 1.600000
c data structure     : dense
c
c           Graph Stats
c number of vertices  : 30
c nonisolated vertices: 30
c number of edges     : 221
c edge density        : 0.508046
c max degree          : 17
c avg degree          : 14.73
c min degree          : 13
p col 30 221
e 1 6
e 1 8
e 1 10
e 1 13
e 1 15
e 1 16
e 1 17
e 1 18
e 1 20
e 1 21
e 1 23
e 1 28
e 1 30
e 2 6
e 2 8
e 2 10
e 2 13
e 2 15
e 2 16
e 2 17
e 2 18
e 2 20
e 2 21
e 2 23
e 2 28
e 2 30
e 3 6
e 3 8
e 3 10
e 3 13
e 3 15
e 3 16
e 3 17
e 3 18
e 3 20
e 3 21
e 3 23
e 3 28
e 3 30
e 4 6
e 4 8
e 4 10
e 4 13
e 4 15
e 4 16
e 4 17
e 4 18
e 4 20
e 4 21
e 4 23
e 4 28
e 4 30
e 5 6
e 5 8
e 5 10
e 5 13
e 5 15
e 5 16
e 5 17
e 5 18
e 5 20
e 5 21
e 5 23
e 5 28
e 5 30
e 6 7
e 6 9
e 6 11
e 6 12
e 6 14
e 6 19
e 6 22
e 6 24
e 6 25
e 6 26
e 6 27
e 6 29
e 7 8
e 7 10
e 7 13
e 7 15
e 7 16
e 7 17
e 7 18
e 7 20
e 7 21
e 7 23
e 7 28
e 7 30
e 8 9
e 8 11
e 8 12
e 8 14
e 8 19
e 8 22
e 8 24
e 8 25
e 8 26
e 8 27
e 8 29
e 9 10
e 9 13
e 9 15
e 9 16
e 9 17
e 9 18
e 9 20
e 9 21
e 9 23
e 9 28
e 9 30
e 10 11
e 10 12
e 10 14
e 10 19
e 10 22
e 10 24
e 10 25
e 10 26
e 10 27
e 10 29
e 11 13
e 11 15
e 11 16
e 11 17
e 11 18
e 11 20
e 11 21
e 11 23
e 11 28
e 11 30
e 12 13
e 12 15
e 12 16
e 12 17
e 12 18
e 12 20
e 12 21
e 12 23
e 12 28
e 12 30
e 13 14
e 13 19
e 13 22
e 13 24
e 13 25
e 13 26
e 13 27
e 13 29
e 14 15
e 14 16
e 14 17
e 14 18
e 14 20
e 14 21
e 14 23
e 14 28
e 14 30
e 15 19
e 15 22
e 15 24
e 15 25
e 15 26
e 15 27
e 15 29
e 16 19
e 16 22
e 16 24
e 16 25
e 16 26
e 16 27
e 16 29
e 17 19
e 17 22
e 17 24
e 17 25
e 17 26
e 17 27
e 17 29
e 18 19
e 18 22
e 18 24
e 18 25
e 18 26
e 18 27
e 18 29
e 19 20
e 19 21
e 19 23
e 19 28
e 19 30
e 20 22
e 20 24
e 20 25
e 20 26
e 20 27
e 20 29
e 21 22
e 21 24
e 21 25
e 21 26
e 21 27
e 21 29
e 22 23
e 22 28
e 22 30
e 23 24
e 23 25
e 23 26
e 23 27
e 23 29
e 24 28
e 24 30
e 25 28
e 25 30
e 26 28
e 26 30
e 27 28
e 27 30
e 28 29
e 29 30
